proyfinal/src/viki/013/experimentInOfficeAgust.take6.output/b0e51604-98e3-48fd-a410-8c5f78a38e99.als.dat
{'cnf.clauses': '161767',
 'cnf.totvars': '87638',
 'conflict literals': '588565',
 'conflicts': '10065',
 'decisions': '31061',
 'memused.mb': '27.93',
 'outcome': 'UNSAT',
 'propagations': '16620907',
 'restarts': '45',
 'solver.msecs': 1517,
 'stats_inv': {'cnf.clauses': '118081',
               'cnf.totvars': '69608',
               'conflict literals': '29',
               'conflicts': '13',
               'decisions': '42221',
               'memused.mb': '16.88',
               'outcome': 'SAT',
               'propagations': '83691',
               'restarts': '1',
               'solver.msecs': 37,
               'task.output': "Reading from standard input... Use '--help' for "
                              'help.\n'
                              '============================[ Problem '
                              'Statistics ]=============================\n'
                              '|                                                                             '
                              '|\n'
                              '|  Number of variables:         '
                              '69608                                         '
                              '|\n'
                              '|  Number of clauses:          '
                              '118081                                         '
                              '|\n'
                              '|  Parse time:                   0.03 '
                              's                                       |\n'
                              '|                                                                             '
                              '|\n'
                              '============================[ Search Statistics '
                              ']==============================\n'
                              '| Conflicts |          ORIGINAL         '
                              '|          LEARNT          | Progress |\n'
                              '|           |    Vars  Clauses Literals |    '
                              'Limit  Clauses Lit/Cl |          |\n'
                              '===============================================================================\n'
                              '===============================================================================\n'
                              'restarts              : 1\n'
                              'conflicts             : 13             (350 '
                              '/sec)\n'
                              'decisions             : 42221          (0.00 % '
                              'random) (1137297 /sec)\n'
                              'propagations          : 83691          (2254364 '
                              '/sec)\n'
                              'conflict literals     : 29             (0.00 % '
                              'deleted)\n'
                              'Memory used           : 16.88 MB\n'
                              'CPU time              : 0.037124 s\n'
                              '\n'
                              'SATISFIABLE\n'},
 'task.msecs': 2512}
