proyfinal/src/viki/013/andrea/andrea-localstore/experimentInOfficeAgust.take6/worker_8/b0e51604-98e3-48fd-a410-8c5f78a38e99.als.cnf.out
Reading from standard input... Use '--help' for help.
============================[ Problem Statistics ]=============================
|                                                                             |
|  Number of variables:         87638                                         |
|  Number of clauses:          161767                                         |
|  Parse time:                   0.04 s                                       |
|                                                                             |
============================[ Search Statistics ]==============================
| Conflicts |          ORIGINAL         |          LEARNT          | Progress |
|           |    Vars  Clauses Literals |    Limit  Clauses Lit/Cl |          |
===============================================================================
|       100 |   62733   106379   265981 |    39005      100     58 | 28.418 % |
|       250 |   62733   106379   265981 |    42906      250     40 | 28.418 % |
|       475 |   62733   106379   265981 |    47196      475     44 | 28.418 % |
|       812 |   62733   106379   265981 |    51916      812     57 | 28.418 % |
|      1318 |   62732   106335   265891 |    57108     1317     75 | 28.419 % |
|      2077 |   62732   106335   265891 |    62818     2076     70 | 28.419 % |
|      3216 |   62732   106335   265891 |    69100     3215     93 | 28.419 % |
|      4924 |   62732   106335   265891 |    76010     4923     82 | 28.419 % |
|      7486 |   47765    62253   157676 |    83612     7006     68 | 45.497 % |
===============================================================================
restarts              : 45
conflicts             : 10065          (6634 /sec)
decisions             : 31061          (0.00 % random) (20474 /sec)
propagations          : 16620907       (10955486 /sec)
conflict literals     : 588565         (50.12 % deleted)
Memory used           : 27.93 MB
CPU time              : 1.51713 s

UNSATISFIABLE
